Optimal - objective value 21.00000000
      8 x_0_9                   1                       1
     22 x_0_23                  1                       1
     33 x_1_12                  1                       1
     81 x_3_19                  1                       2
    110 x_5_11                  1                       2
    118 x_5_19                  1                       1
    123 x_6_7                   1                       2
    132 x_6_16                  1                       1
    161 x_8_14                  1                       1
    176 x_9_15                  1                       2
    217 x_12_20                 1                       1
    220 x_12_23                 1                       1
    236 x_14_20                 1                       1
    243 x_15_19                 1                       1
    251 x_16_20                 1                       3
    292 f_0_9                 5.5                       0
    293 f_9_0                 3.5                       0
    320 f_0_23                  8                       0
    321 f_23_0                  1                       0
    342 f_1_12                  4                       0
    343 f_12_1                  5                       0
    438 f_3_19                  4                       0
    439 f_19_3                  5                       0
    496 f_5_11                  5                       0
    497 f_11_5                  4                       0
    512 f_5_19                  4                       0
    513 f_19_5                  5                       0
    522 f_6_7                   5                       0
    523 f_7_6                   4                       0
    540 f_6_16                3.5                       0
    541 f_16_6                5.5                       0
    598 f_8_14                  4                       0
    599 f_14_8                  5                       0
    628 f_9_15                5.5                       0
    629 f_15_9                3.5                       0
    710 f_12_20                 5                       0
    717 f_23_12                 7                       0
    748 f_14_20               3.5                       0
    749 f_20_14               5.5                       0
    762 f_15_19               5.5                       0
    763 f_19_15               3.5                       0
    778 f_16_20                 3                       0
    779 f_20_16                 6                       0
